NAME : B-n35-k5
COMMENT : (Augerat et al, No of trucks: 5, Optimal value: 955)
TYPE : CVRP
DIMENSION : 35
EDGE_WEIGHT_TYPE : EUC_2D 
CAPACITY : 100
NODE_COORD_SECTION 
 1 78 95
 2 93 43
 3 57 4
 4 2 80
 5 10 17
 6 31 8
 7 10 87
 8 97 50
 9 16 93
 10 98 48
 11 103 47
 12 38 9
 13 100 51
 14 60 11
 15 15 19
 16 39 15
 17 102 47
 18 103 59
 19 10 82
 20 39 9
 21 97 52
 22 18 97
 23 32 13
 24 96 45
 25 11 21
 26 15 96
 27 10 81
 28 13 24
 29 0 8
 30 103 59
 31 33 11
 32 13 94
 33 63 5
 34 3 87
 35 14 25
DEMAND_SECTION 
1 0 
2 12 
3 3 
4 2 
5 13 
6 17 
7 12 
8 1 
9 26 
10 13 
11 15 
12 20 
13 20 
14 3 
15 3 
16 12 
17 25 
18 2 
19 15 
20 24 
21 2 
22 7 
23 15 
24 2 
25 13 
26 9 
27 12 
28 26 
29 17 
30 26 
31 9 
32 14 
33 9 
34 25 
35 13 
DEPOT_SECTION 
 1  
 -1  
EOF 
